s td 104 9 112
b 1 1 2 15
b 2 13 14 28
b 3 85 99 100
b 4 98 111 112
b 5 2 3 15 16
b 6 12 13 27 28
b 7 3 4 18 33 48 63 78 93 106
b 8 4 5 18 33 48 63 78 93 106
b 9 5 18 20 33 48 63 78 93 106
b 10 5 20 33 35 48 63 78 93 106
b 11 5 20 35 48 50 63 78 93 106
b 12 5 20 35 50 63 65 78 93 106
b 13 5 7 20 35 50 65 78 93 106
b 14 5 6 7 20
b 15 7 20 22 35 50 65 78 93 106
b 16 7 22 35 37 50 65 78 93 106
b 17 7 22 37 50 52 65 78 93 106
b 18 7 22 37 52 65 78 80 93 106
b 19 7 22 37 52 65 67 80 93 106
b 20 7 9 22 37 52 67 80 93 106
b 21 7 8 9 22
b 22 9 22 24 37 52 67 80 93 106
b 23 9 24 37 39 52 67 80 93 106
b 24 9 24 39 52 54 67 80 93 106
b 25 9 11 24 39 54 67 80 93 106
b 26 9 10 11 24
b 27 11 24 26 39 54 67 80 93 106
b 28 11 26 39 41 54 67 80 93 106
b 29 11 26 28 41 54 67 80 93 106
b 30 11 26 27 28 41
b 31 11 12 26 27 28
b 32 28 41 54 67 80 93 106 108
b 33 28 41 54 67 80 93 95 108
b 34 28 41 54 67 80 82 95 108
b 35 28 41 54 67 69 82 95 108
b 36 28 41 54 69 82 84 95 108
b 37 28 41 54 56 69 84
b 38 28 41 42 56
b 39 41 54 55 56 69
b 40 56 69 70 84
b 41 69 82 84 95 108 110
b 42 69 82 84 95 97 110
b 43 69 82 83 84 97
b 44 82 95 96 97 110
b 45 84 97 110 111
b 46 95 108 109 110
b 47 54 67 68 69 82
b 48 67 80 81 82 95
b 49 80 93 94 95 108
b 50 93 106 107 108
b 51 26 39 40 41 54
b 52 11 24 25 26 39
b 53 39 52 53 54 67
b 54 24 37 38 39 52
b 55 9 22 23 24 37
b 56 52 65 66 67 80
b 57 65 78 79 80 93
b 58 37 50 51 52 65
b 59 22 35 36 37 50
b 60 7 20 21 22 35
b 61 50 63 64 65 78
b 62 35 48 49 50 63
b 63 20 33 34 35 48
b 64 5 18 19 20 33
b 65 3 18 33 48 63 78 91 93 106
b 66 3 18 33 48 63 76 78 91 106
b 67 3 18 33 48 61 63 76 91 106
b 68 3 18 33 46 48 61 76 91 106
b 69 3 18 33 46 61 76 91 104 106
b 70 3 18 33 46 61 76 89 91 104
b 71 3 18 33 46 61 74 76 89 104
b 72 3 18 33 46 59 61 74 89 104
b 73 3 18 31 33 46 59 74 89 104
b 74 3 18 31 44 46 59 74 89 104
b 75 3 18 29 31 44 59 74 89 104
b 76 3 16 18 29 31 44
b 77 3 15 16 29
b 78 3 16 17 18 31
b 79 16 29 30 31 44
b 80 29 44 59 74 89 102 104
b 81 29 44 59 74 87 89 102
b 82 29 44 59 72 74 87 102
b 83 29 44 59 71 72 87 102
b 84 29 44 58 59 71 72
b 85 29 43 44 58 71
b 86 43 57 58 71
b 87 71 72 87 100 102
b 88 71 72 86 87 100
b 89 87 100 101 102
b 90 59 72 73 74 87
b 91 74 87 88 89 102
b 92 89 102 103 104
b 93 31 44 45 46 59
b 94 18 31 32 33 46
b 95 46 59 60 61 74
b 96 61 74 75 76 89
b 97 76 89 90 91 104
b 98 91 104 105 106
b 99 33 46 47 48 61
b 100 48 61 62 63 76
b 101 63 76 77 78 91
b 102 78 91 92 93 106
b 103 71 85 86 100
b 104 84 97 98 111
1 5
2 6
3 103
4 104
5 77
6 31
7 8
7 65
8 9
9 10
9 64
10 11
10 63
11 12
11 62
12 13
12 61
13 14
13 15
15 16
15 60
16 17
16 59
17 18
17 58
18 19
18 57
19 20
19 56
20 21
20 22
22 23
22 55
23 24
23 54
24 25
24 53
25 26
25 27
27 28
27 52
28 29
28 51
29 30
29 32
30 31
32 33
32 50
33 34
33 49
34 35
34 48
35 36
35 47
36 37
36 41
37 38
37 39
37 40
41 42
41 46
42 43
42 44
42 45
45 104
65 66
65 102
66 67
66 101
67 68
67 100
68 69
68 99
69 70
69 98
70 71
70 97
71 72
71 96
72 73
72 95
73 74
73 94
74 75
74 93
75 76
75 80
76 77
76 78
76 79
80 81
80 92
81 82
81 91
82 83
82 90
83 84
83 87
84 85
85 86
87 88
87 89
88 103
